# 49513
param k := 6;
param n := 60;
param s := 1;
set E :=  (0,8) (0,40) (1,13) (1,39) (1,46) (1,54) (2,32) (2,36) (3,6) (3,17) (4,5) (4,26) (4,40) (6,40) (7,25) (8,14) (8,43) (9,15) (9,24) (9,48) (9,49) (10,56) (11,59) (12,37) (13,22) (13,31) (14,16) (14,45) (15,19) (15,36) (15,50) (16,56) (17,34) (18,31) (18,41) (19,44) (19,57) (20,37) (20,40) (21,22) (22,42) (23,32) (24,30) (24,47) (25,35) (25,45) (25,53) (27,30) (28,57) (29,50) (29,59) (31,51) (31,57) (32,33) (35,48) (36,42) (38,52) (39,55) (40,44) (49,51) (50,56) (52,56) (56,58);